# x   |  y    | demand	| numItems | l - w (for each item)
0.0	0.0	0.0	0
3.0	1.0	300.0	1	11	9
3.0	3.0	300.0	2	11	5	22	3
1.0	3.0	300.0	2	36	3	19	3
-1.0	3.0	300.0	2	8	14	9	4
-3.0	3.0	300.0	2	18	8	32	4
-3.0	1.0	300.0	1	8	13
-3.0	-1.0	300.0	1	17	7
-3.0	-3.0	300.0	1	16	7
-1.0	-3.0	300.0	2	19	7	24	3
1.0	-3.0	300.0	2	11	4	34	3
3.0	-3.0	300.0	1	6	12
3.0	-1.0	300.0	1	30	3
5.0	1.0	180.0	1	12	8
5.0	3.0	180.0	1	29	4
5.0	5.0	180.0	2	7	13	6	13
3.0	5.0	180.0	2	7	13	8	4
1.0	5.0	180.0	1	13	7
-1.0	5.0	180.0	2	15	5	19	2
-3.0	5.0	180.0	2	26	2	21	2
-5.0	5.0	180.0	2	34	4	32	2
-5.0	3.0	180.0	1	22	4
-5.0	1.0	180.0	2	11	6	31	2
-5.0	-1.0	180.0	2	5	14	28	3
-5.0	-3.0	180.0	1	17	5
-5.0	-5.0	180.0	1	17	7
-3.0	-5.0	180.0	1	9	9
-1.0	-5.0	180.0	2	6	13	15	6
1.0	-5.0	180.0	1	6	17
3.0	-5.0	180.0	2	32	4	29	2
5.0	-5.0	180.0	2	7	16	16	4
5.0	-3.0	180.0	1	6	15
5.0	-1.0	180.0	2	4	14	8	6
7.0	1.0	128.0	2	10	6	27	2
7.0	3.0	128.0	1	7	16
7.0	5.0	128.0	2	8	7	22	3
7.0	7.0	128.0	2	4	12	7	8
5.0	7.0	128.0	2	7	10	19	3
3.0	7.0	128.0	1	7	12
1.0	7.0	128.0	1	19	3
-1.0	7.0	128.0	1	5	9
-3.0	7.0	128.0	2	13	8	23	3
-5.0	7.0	128.0	2	17	10	18	5
-7.0	7.0	128.0	1	6	16
-7.0	5.0	128.0	1	10	8
-7.0	3.0	128.0	1	8	14
-7.0	1.0	128.0	1	20	3
-7.0	-1.0	128.0	2	30	3	24	3
-7.0	-3.0	128.0	1	15	4
-7.0	-5.0	128.0	1	19	8
-7.0	-7.0	128.0	1	11	6
-5.0	-7.0	128.0	2	13	7	34	2
-3.0	-7.0	128.0	2	5	15	32	2
-1.0	-7.0	128.0	2	4	11	10	10
1.0	-7.0	128.0	1	12	8
3.0	-7.0	128.0	2	17	5	36	3
5.0	-7.0	128.0	2	14	10	17	3
7.0	-7.0	128.0	1	7	10
7.0	-5.0	128.0	2	6	9	24	3
7.0	-3.0	128.0	2	5	18	18	4
7.0	-1.0	128.0	1	6	15
9.0	1.0	100.0	1	9	9
9.0	3.0	100.0	2	8	15	16	7
9.0	5.0	100.0	1	5	13
9.0	7.0	100.0	1	22	2
9.0	9.0	100.0	1	8	5
7.0	9.0	100.0	1	6	9
5.0	9.0	100.0	1	14	8
3.0	9.0	100.0	2	24	3	24	2
1.0	9.0	100.0	2	8	17	26	3
-1.0	9.0	100.0	2	6	10	27	3
-3.0	9.0	100.0	2	8	13	12	7
-5.0	9.0	100.0	2	27	2	26	2
-7.0	9.0	100.0	2	18	8	10	8
-9.0	9.0	100.0	2	5	11	5	8
-9.0	7.0	100.0	2	10	9	11	7
-9.0	5.0	100.0	2	30	2	25	2
-9.0	3.0	100.0	1	28	3
-9.0	1.0	100.0	1	5	15
-9.0	-1.0	100.0	1	23	2
-9.0	-3.0	100.0	2	5	17	5	15
-9.0	-5.0	100.0	1	17	9
-9.0	-7.0	100.0	1	7	9
-9.0	-9.0	100.0	2	4	16	5	15
-7.0	-9.0	100.0	2	7	15	11	9
-5.0	-9.0	100.0	1	18	6
-3.0	-9.0	100.0	1	15	7
-1.0	-9.0	100.0	1	19	7
1.0	-9.0	100.0	1	25	2
3.0	-9.0	100.0	1	4	13
5.0	-9.0	100.0	1	27	3
7.0	-9.0	100.0	2	11	9	31	4
9.0	-9.0	100.0	2	5	18	7	17
9.0	-7.0	100.0	2	17	9	21	3
9.0	-5.0	100.0	2	5	11	10	5
9.0	-3.0	100.0	1	16	6
9.0	-1.0	100.0	2	8	6	20	2
11.0	1.0	81.0	1	10	9
11.0	3.0	81.0	2	7	11	21	4
11.0	5.0	81.0	1	7	15
11.0	7.0	81.0	2	5	16	11	6
11.0	9.0	81.0	2	13	7	36	4
11.0	11.0	81.0	1	5	17
9.0	11.0	81.0	1	25	2
7.0	11.0	81.0	2	19	7	12	4
5.0	11.0	81.0	1	22	4
3.0	11.0	81.0	2	17	8	27	3
1.0	11.0	81.0	1	18	3
-1.0	11.0	81.0	2	7	16	20	3
-3.0	11.0	81.0	1	11	8
-5.0	11.0	81.0	2	25	4	20	2
-7.0	11.0	81.0	1	4	12
-9.0	11.0	81.0	2	7	13	26	3
-11.0	11.0	81.0	2	8	10	19	5
-11.0	9.0	81.0	1	6	12
-11.0	7.0	81.0	2	7	9	10	6
-11.0	5.0	81.0	2	19	4	18	4
-11.0	3.0	81.0	1	15	4
-11.0	1.0	81.0	2	16	10	11	8
-11.0	-1.0	81.0	2	5	16	15	6
-11.0	-3.0	81.0	1	6	10
-11.0	-5.0	81.0	1	14	6
-11.0	-7.0	81.0	1	21	3
-11.0	-9.0	81.0	1	23	2
-11.0	-11.0	81.0	1	11	9
-9.0	-11.0	81.0	2	16	4	35	2
-7.0	-11.0	81.0	2	9	7	13	6
-5.0	-11.0	81.0	2	17	9	29	2
-3.0	-11.0	81.0	1	19	2
-1.0	-11.0	81.0	2	5	11	11	8
1.0	-11.0	81.0	2	34	2	22	2
3.0	-11.0	81.0	1	25	4
5.0	-11.0	81.0	1	21	3
7.0	-11.0	81.0	1	5	11
9.0	-11.0	81.0	2	23	4	17	3
11.0	-11.0	81.0	1	11	8
11.0	-9.0	81.0	1	7	9
11.0	-7.0	81.0	1	15	10
11.0	-5.0	81.0	1	11	4
11.0	-3.0	81.0	1	33	3
11.0	-1.0	81.0	1	4	9
13.0	1.0	69.0	1	5	11
13.0	3.0	69.0	2	5	13	22	3
13.0	5.0	69.0	1	20	5
13.0	7.0	69.0	2	17	6	19	3
13.0	9.0	69.0	1	31	3
13.0	11.0	69.0	1	15	6
13.0	13.0	69.0	1	13	10
11.0	13.0	69.0	1	24	3
9.0	13.0	69.0	2	14	5	21	3
7.0	13.0	69.0	2	6	17	16	7
5.0	13.0	69.0	2	7	17	26	2
3.0	13.0	69.0	1	5	17
1.0	13.0	69.0	1	13	7
-1.0	13.0	69.0	1	24	3
-3.0	13.0	69.0	1	18	5
-5.0	13.0	69.0	2	5	13	16	6
-7.0	13.0	69.0	2	26	3	31	2
-9.0	13.0	69.0	2	24	4	32	2
-11.0	13.0	69.0	1	7	16
-13.0	13.0	69.0	2	5	16	6	10
-13.0	11.0	69.0	1	15	5
-13.0	9.0	69.0	1	26	4
-13.0	7.0	69.0	2	10	8	14	6
-13.0	5.0	69.0	2	19	7	34	3
-13.0	3.0	69.0	1	15	5
-13.0	1.0	69.0	2	26	4	24	3
-13.0	-1.0	69.0	2	5	12	18	5
-13.0	-3.0	69.0	1	14	9
-13.0	-5.0	69.0	1	17	6
-13.0	-7.0	69.0	1	15	10
-13.0	-9.0	69.0	1	8	14
-13.0	-11.0	69.0	2	5	11	23	3
-13.0	-13.0	69.0	2	30	4	25	3
-11.0	-13.0	69.0	1	8	15
-9.0	-13.0	69.0	2	6	10	26	2
-7.0	-13.0	69.0	2	8	14	7	11
-5.0	-13.0	69.0	1	16	9
-3.0	-13.0	69.0	2	7	13	19	5
-1.0	-13.0	69.0	2	7	14	32	3
1.0	-13.0	69.0	1	7	11
3.0	-13.0	69.0	1	6	12
5.0	-13.0	69.0	1	17	4
7.0	-13.0	69.0	2	8	16	5	9
9.0	-13.0	69.0	2	7	10	14	5
11.0	-13.0	69.0	2	17	9	35	3
13.0	-13.0	69.0	1	5	8
13.0	-11.0	69.0	1	5	13
13.0	-9.0	69.0	2	17	7	34	2
13.0	-7.0	69.0	1	27	3
13.0	-5.0	69.0	2	19	8	11	5
13.0	-3.0	69.0	2	5	16	36	2
13.0	-1.0	69.0	1	6	11
15.0	1.0	60.0	1	11	10
15.0	3.0	60.0	2	15	9	24	3
15.0	5.0	60.0	2	20	5	35	3
15.0	7.0	60.0	1	32	3
15.0	9.0	60.0	2	8	15	19	4
15.0	11.0	60.0	1	26	3
15.0	13.0	60.0	1	4	12
15.0	15.0	60.0	1	7	9
13.0	15.0	60.0	1	25	3
11.0	15.0	60.0	1	25	2
9.0	15.0	60.0	2	5	12	23	2
7.0	15.0	60.0	2	16	6	23	2
5.0	15.0	60.0	1	8	9
3.0	15.0	60.0	2	12	5	28	4
1.0	15.0	60.0	1	9	6
-1.0	15.0	60.0	1	7	14
-3.0	15.0	60.0	2	5	15	20	7
-5.0	15.0	60.0	1	8	16
-7.0	15.0	60.0	1	20	9
-9.0	15.0	60.0	1	20	3
-11.0	15.0	60.0	1	6	9
-13.0	15.0	60.0	2	18	9	19	7
-15.0	15.0	60.0	1	6	15
-15.0	13.0	60.0	1	19	9
-15.0	11.0	60.0	1	23	3
-15.0	9.0	60.0	1	5	15
-15.0	7.0	60.0	2	6	18	13	9
-15.0	5.0	60.0	1	6	15
-15.0	3.0	60.0	2	6	16	19	6
-15.0	1.0	60.0	1	18	9
-15.0	-1.0	60.0	1	14	8
-15.0	-3.0	60.0	2	8	10	25	2
-15.0	-5.0	60.0	1	34	2
-15.0	-7.0	60.0	1	8	13
-15.0	-9.0	60.0	1	21	3
-15.0	-11.0	60.0	1	11	7
-15.0	-13.0	60.0	2	13	9	21	3
-15.0	-15.0	60.0	2	4	15	36	3
-13.0	-15.0	60.0	2	4	18	4	8
-11.0	-15.0	60.0	2	7	16	35	4
-9.0	-15.0	60.0	2	18	5	25	3
-7.0	-15.0	60.0	1	19	2
-5.0	-15.0	60.0	2	7	17	20	2
-3.0	-15.0	60.0	1	24	3
-1.0	-15.0	60.0	2	29	2	20	2
1.0	-15.0	60.0	1	9	7
3.0	-15.0	60.0	1	19	2
5.0	-15.0	60.0	1	10	5
7.0	-15.0	60.0	2	5	10	25	2
9.0	-15.0	60.0	1	19	7
11.0	-15.0	60.0	2	5	18	27	4
13.0	-15.0	60.0	1	5	12
15.0	-15.0	60.0	2	5	10	15	8
15.0	-13.0	60.0	1	29	3
15.0	-11.0	60.0	1	11	9
15.0	-9.0	60.0	1	6	15
15.0	-7.0	60.0	1	26	3
15.0	-5.0	60.0	2	34	3	20	2
15.0	-3.0	60.0	1	7	14
15.0	-1.0	60.0	1	32	4